p cnf 282 1456
-27 -39 -10 -35 -48 0
-38 6 28 -36 30 0
37 39 41 -30 -20 0
-19 -48 45 40 -6 0
-23 -48 -19 -6 -7 0
-28 -4 24 -31 21 0
5 -8 -47 -50 48 0
49 -1 -3 -23 44 0
31 -42 -32 29 49 0
-16 -41 -49 11 34 0
47 -23 -27 -42 -44 0
46 8 -19 37 -13 0
-36 -41 40 -7 -34 0
38 -37 42 -21 -34 0
18 47 50 33 -10 0
21 33 -5 -19 25 0
39 -19 30 10 28 0
-43 6 42 -7 47 0
-16 5 -40 39 -17 0
3 9 5 39 -36 0
6 22 33 16 -10 0
-45 48 -6 33 8 0
-23 -33 42 -14 -13 0
15 33 27 46 -16 0
48 23 35 -13 -12 0
8 16 38 32 7 0
8 -38 11 -37 27 0
-22 27 19 -16 -37 0
-26 -5 37 -35 47 0
-26 -15 40 41 -9 0
-36 37 -25 43 34 0
-2 37 -23 8 -42 0
30 -6 -50 -45 3 0
-32 11 -16 25 -43 0
2 -34 21 15 47 0
5 33 -41 2 -24 0
16 33 10 30 50 0
3 -12 6 35 7 0
19 44 18 20 -30 0
-1 -24 -28 -26 37 0
-20 -10 28 16 33 0
-50 -36 15 22 42 0
-37 39 -13 -46 -22 0
-48 27 -16 -2 17 0
6 -33 -15 -3 -31 0
-22 -4 23 14 48 0
-32 41 29 8 -47 0
-15 -47 -23 -8 -41 0
30 46 -2 49 43 0
-44 -12 41 21 39 0
27 -20 29 41 -18 0
13 32 -50 -36 -16 0
-38 37 21 7 -9 0
34 24 10 -40 -30 0
-40 27 -39 8 -5 0
-14 -31 -28 -38 8 0
48 41 34 7 -49 0
3 11 42 34 21 0
-28 -6 31 13 -41 0
2 -39 -1 12 -3 0
-15 -39 -42 -3 -50 0
12 40 -28 -11 -30 0
26 33 12 49 -18 0
-35 -19 -23 -15 8 0
-35 -9 -30 4 -39 0
-44 -4 -20 -37 -2 0
31 38 -22 14 -44 0
-34 -16 -25 -30 17 0
37 -4 -17 44 -48 0
-40 34 -46 14 -42 0
-9 -31 46 -25 -32 0
11 -7 19 15 -4 0
45 30 -14 28 5 0
-32 16 15 2 -21 0
31 33 47 28 13 0
9 -37 -6 5 -46 0
1 -19 8 41 -37 0
-2 38 -40 -28 24 0
-44 -5 29 -31 12 0
43 11 -38 -2 8 0
-7 19 -20 23 -22 0
50 -47 2 -5 21 0
-14 -2 -19 7 24 0
-24 -42 -25 48 -23 0
-37 -26 -33 -5 29 0
36 -41 -33 19 -5 0
-1 -15 17 -21 -31 0
34 35 -20 4 28 0
19 31 -33 -6 -11 0
20 19 44 -50 -11 0
12 30 -16 50 -14 0
19 47 -32 6 4 0
-40 -29 -10 -13 44 0
31 -36 -16 -10 45 0
3 -27 -2 -26 48 0
-24 -4 -22 -29 50 0
-4 -9 -48 -22 21 0
44 -43 -33 -49 -45 0
-36 22 31 -26 7 0
-21 -27 -1 -40 2 0
-26 -46 25 17 28 0
-39 -24 43 -15 37 0
7 -24 42 39 16 0
-7 -16 19 -33 -40 0
16 22 11 -45 -23 0
47 25 36 49 6 0
15 36 -18 5 26 0
-32 -46 7 -44 26 0
36 19 43 -48 40 0
-11 -46 -12 48 -15 0
-1 38 32 25 19 0
33 41 -27 4 38 0
22 48 -19 14 -18 0
-24 -23 -10 33 6 0
34 -45 10 26 11 0
-23 -42 43 3 22 0
2 -4 20 -1 26 0
-44 11 47 -9 6 0
4 1 50 43 -5 0
12 8 -13 -25 5 0
-24 -26 18 -20 -12 0
20 -17 -41 48 29 0
-10 42 19 18 -28 0
39 9 42 -2 48 0
44 -37 47 49 -20 0
-30 -31 43 35 17 0
41 -7 -22 -48 16 0
-9 -35 10 36 -39 0
22 -50 40 -4 41 0
-41 -40 14 -49 -46 0
-3 19 17 27 12 0
-1 -41 48 4 -45 0
10 -17 3 19 9 0
25 -19 38 -22 -27 0
46 -9 -45 -16 -31 0
42 -36 38 -32 34 0
-45 15 48 18 26 0
-2 -32 41 -4 -42 0
28 2 -22 -29 20 0
19 -34 -7 37 8 0
-45 -39 -6 8 30 0
27 40 5 22 3 0
-40 13 27 9 -37 0
-4 2 -25 15 12 0
-3 -26 -13 -10 31 0
-33 22 28 -45 -11 0
-43 24 -42 -48 -18 0
50 42 -22 -16 -15 0
-24 29 -18 -49 -10 0
35 46 6 -34 19 0
-30 42 -15 -4 37 0
40 -8 -5 26 -42 0
-29 -45 15 3 -37 0
-17 -10 -44 38 -43 0
4 -47 -16 -49 26 0
7 -27 -3 42 -28 0
-48 -35 2 -4 -30 0
-19 44 -3 5 -10 0
-32 6 49 30 17 0
-2 -37 19 41 -25 0
-11 15 31 -17 19 0
-42 25 -2 20 -26 0
-48 20 46 19 34 0
25 -29 47 -19 11 0
-7 45 50 -13 46 0
27 -48 39 47 -20 0
-43 -25 -9 7 -14 0
38 -18 28 12 44 0
-25 35 13 -36 22 0
46 -49 -29 40 37 0
31 -22 -11 18 5 0
22 -17 -25 9 32 0
42 31 29 -1 33 0
27 -15 46 18 6 0
-32 21 33 37 -22 0
-24 12 -21 -6 -2 0
21 -43 50 29 -15 0
26 35 -13 -46 -34 0
-13 -3 -25 -4 -21 0
-6 8 20 27 -38 0
-32 -21 -35 -23 -18 0
-12 46 44 -50 2 0
-43 46 41 -44 -30 0
-19 -47 -27 -23 -6 0
9 22 -45 15 48 0
-45 13 46 -40 -30 0
-35 -19 -46 -9 -37 0
-35 17 -42 32 4 0
-19 35 -34 -41 -45 0
-40 -9 -35 50 21 0
48 37 14 -17 21 0
13 -21 48 16 39 0
-12 36 43 -21 -17 0
15 -5 29 20 23 0
-17 -21 18 -28 -27 0
16 -43 -34 -31 -4 0
23 -38 16 39 13 0
13 16 9 42 -35 0
-38 33 -17 9 -42 0
3 -13 -27 36 47 0
31 -7 -17 38 18 0
-43 -28 30 1 -31 0
-14 12 16 -7 -27 0
25 -6 -19 -34 12 0
-47 -13 49 -15 -14 0
40 -19 13 34 10 0
-5 37 42 -27 1 0
49 21 -4 20 -32 0
49 -31 23 8 -2 0
-13 34 -5 -20 39 0
9 -4 36 -37 -23 0
-8 -24 38 -14 15 0
-26 31 22 -4 -5 0
28 32 -8 -37 -23 0
-43 -21 14 31 -37 0
45 31 -6 -4 18 0
50 12 -3 32 24 0
-14 16 29 -22 -43 0
-12 -9 -49 22 -44 0
31 -14 -22 -16 -7 0
-10 8 -19 38 -21 0
28 5 12 -2 -44 0
35 2 8 -36 43 0
2 39 26 -16 -32 0
24 6 27 40 -1 0
-16 5 12 45 -19 0
39 -45 2 26 50 0
-50 3 19 7 -17 0
-12 -40 -22 28 -34 0
23 -5 28 -50 31 0
-9 31 18 16 11 0
5 -32 -9 23 34 0
9 4 -37 -41 24 0
12 24 -2 16 -1 0
-25 -39 45 21 -3 0
-18 -5 -34 -13 2 0
38 8 20 26 1 0
-13 -42 7 43 -41 0
-46 22 23 1 -40 0
26 -22 36 -25 -44 0
-39 35 -43 -16 47 0
45 -23 20 -28 -11 0
-25 13 26 18 -36 0
48 32 13 47 -37 0
-12 -41 -20 15 21 0
-42 39 -6 -4 46 0
-49 -5 42 -13 -2 0
-26 42 -9 -46 31 0
48 31 29 -10 32 0
-41 5 14 -39 -38 0
-39 -5 -44 -35 -11 0
8 -48 -22 -12 -7 0
-13 15 -46 34 -36 0
48 -32 -22 17 9 0
-39 -7 21 -30 -26 0
48 8 33 32 42 0
-21 16 34 3 -12 0
-10 32 -36 -22 39 0
-11 -37 -35 16 1 0
-5 29 -50 27 23 0
-22 16 -43 -46 -13 0
24 34 48 -49 40 0
-34 30 48 25 10 0
-5 45 -6 19 -17 0
46 2 -25 -27 -48 0
15 42 12 47 24 0
36 7 -30 26 6 0
-4 15 11 -18 3 0
-40 -13 41 3 -19 0
-43 -19 -2 7 -16 0
32 -36 -10 -8 22 0
34 2 49 23 -25 0
-47 41 16 -19 4 0
11 44 37 -19 -28 0
30 -44 -8 18 -50 0
-36 11 17 15 -8 0
11 30 23 -5 50 0
42 15 20 -8 4 0
6 23 -21 34 -17 0
29 2 22 -6 39 0
-2 -41 37 -29 42 0
4 25 11 -24 -47 0
15 -45 10 24 14 0
-26 -20 36 -39 -3 0
-21 -8 3 7 29 0
13 7 50 10 23 0
-41 -42 12 -17 20 0
19 -24 20 2 -32 0
-19 11 -44 -27 -32 0
-42 26 -19 -35 30 0
11 4 22 -18 32 0
39 -50 23 -31 19 0
-39 26 22 -12 -25 0
39 -24 -36 12 -20 0
-4 38 -24 -29 -20 0
32 39 1 -48 -3 0
-44 11 -4 -27 -35 0
18 7 -21 12 34 0
-23 -12 -2 50 24 0
17 -36 8 -35 12 0
40 -14 -31 33 32 0
23 17 -7 -26 -27 0
-6 -40 -20 36 -35 0
23 48 -1 -2 -27 0
-21 46 -26 -44 48 0
19 -26 -17 6 -37 0
29 31 11 39 47 0
4 -8 26 -35 -29 0
12 21 44 39 -3 0
-39 31 27 -38 42 0
27 6 4 15 -13 0
47 32 -39 46 1 0
-48 2 28 22 -39 0
-40 1 9 2 3 0
-42 31 1 -36 46 0
42 41 -18 43 3 0
47 23 14 -28 -19 0
15 10 1 36 22 0
48 -8 -47 12 -7 0
-9 -40 8 39 21 0
48 38 23 50 34 0
-14 27 -13 20 24 0
28 49 -34 27 -40 0
17 -30 45 -42 39 0
-16 34 24 -42 -48 0
-19 23 -9 48 -8 0
-11 4 2 1 38 0
-13 49 37 15 41 0
-50 -20 13 7 35 0
-22 21 28 -16 -27 0
-42 -6 29 20 8 0
-21 -2 18 30 8 0
18 -31 -21 40 34 0
-24 19 -26 37 18 0
47 4 -33 29 -38 0
48 19 37 30 -44 0
12 -14 41 -27 3 0
5 -14 -7 22 -32 0
-18 -30 -48 -40 -17 0
-28 -10 24 -27 22 0
37 36 -38 -45 25 0
-20 -37 22 50 -32 0
-10 26 36 38 -19 0
-11 15 43 5 19 0
-26 -44 -50 39 -42 0
-50 5 28 -29 -46 0
-24 -40 -34 -4 -22 0
12 -9 44 17 3 0
22 -30 23 34 -35 0
-9 -27 -5 -42 -40 0
47 39 18 -23 -29 0
-3 -23 -5 -6 19 0
1 -22 -46 44 16 0
-2 -17 -43 12 -25 0
-4 30 18 14 46 0
23 -1 24 8 -13 0
-24 5 -47 11 44 0
11 20 37 23 36 0
24 5 3 -27 -45 0
-14 45 -10 5 22 0
4 -44 -18 35 -41 0
-21 10 -24 43 9 0
-45 50 -18 21 30 0
-20 -14 17 32 48 0
38 31 25 -1 11 0
44 -50 -37 -42 23 0
-35 25 -28 11 -5 0
-41 -17 -34 46 20 0
-22 16 -38 -7 -3 0
16 48 -50 17 -2 0
-40 35 25 43 -2 0
-4 -20 30 -31 -33 0
-43 -41 -42 -50 -32 0
18 28 31 -38 -24 0
-12 -8 33 9 16 0
29 27 -23 28 19 0
-37 -39 -50 -23 4 0
-47 41 -30 -13 8 0
-42 15 -18 -19 39 0
8 45 -9 -47 -31 0
-24 -38 32 12 34 0
44 41 23 -31 -4 0
-22 20 46 27 12 0
33 -35 18 -31 13 0
45 27 28 -3 34 0
18 47 -23 11 -26 0
-18 44 -43 -39 -2 0
-8 37 -10 27 25 0
8 -10 -7 -3 32 0
-24 20 21 37 11 0
-38 49 -32 -28 10 0
-5 4 21 -29 -15 0
-19 27 39 -1 -14 0
22 -44 35 -2 -46 0
-24 -30 -48 -19 -27 0
-22 -16 -34 50 21 0
27 -47 38 42 35 0
45 24 -18 27 -20 0
-25 -47 -1 -39 16 0
-34 14 -12 -25 48 0
-19 -37 -30 -31 49 0
-9 30 -16 -18 -15 0
29 -33 -19 -12 40 0
34 -39 9 -20 18 0
-24 -20 -12 16 3 0
-38 -40 5 32 50 0
-13 -38 18 -50 -17 0
47 13 27 -9 -25 0
-15 -49 -24 -38 26 0
49 5 -25 31 48 0
-28 1 23 31 40 0
21 25 -15 7 -40 0
-33 48 -30 23 32 0
29 -22 -6 45 -1 0
-30 -19 -25 14 -31 0
-45 10 36 20 -21 0
50 35 25 -16 27 0
-32 10 -18 26 -28 0
-18 19 -3 -15 -21 0
-44 -24 19 14 22 0
-14 29 -28 7 9 0
18 21 -35 49 -10 0
-16 27 -13 36 37 0
-49 3 -17 -6 28 0
2 14 -45 -34 -1 0
-45 -34 8 -1 -27 0
18 44 40 -42 -30 0
31 -49 -29 28 -48 0
18 2 -4 5 -47 0
7 -5 -24 -8 26 0
-12 43 -48 24 -19 0
4 -19 7 12 -11 0
3 11 -42 -22 -30 0
-48 -19 17 -47 -44 0
-32 48 -2 13 14 0
7 -13 -40 29 6 0
35 28 -3 5 4 0
8 7 -12 30 -23 0
-49 -14 15 23 29 0
3 32 39 -8 29 0
7 -5 -14 -45 -25 0
30 29 15 7 -41 0
36 -11 33 -38 -46 0
-25 -32 -41 12 8 0
-33 2 -12 7 10 0
-28 18 25 -30 33 0
46 34 38 39 2 0
36 44 12 17 -1 0
-35 42 8 49 -18 0
-5 44 19 13 10 0
23 -35 31 27 38 0
-4 7 -25 49 9 0
19 1 15 13 -31 0
-15 46 10 -25 37 0
13 38 -25 4 45 0
-43 -25 49 -26 29 0
19 -8 12 -25 -15 0
20 30 -34 -39 49 0
-42 -39 -3 27 17 0
-14 33 -46 18 24 0
20 18 -21 -17 47 0
37 -6 43 36 8 0
-4 -37 -27 19 -12 0
6 -50 21 19 -44 0
30 -35 16 -26 -41 0
-43 36 42 -21 -23 0
-22 1 -15 6 -2 0
-21 27 29 12 47 0
48 -32 7 -10 41 0
41 -8 -30 -18 -7 0
3 -22 -50 -7 -46 0
-8 15 -5 49 48 0
-49 21 25 37 46 0
29 15 5 24 3 0
6 15 32 -35 20 0
41 2 8 -34 19 0
-40 2 9 -11 8 0
-10 48 24 19 -27 0
-29 8 -28 -11 -4 0
-32 3 30 14 47 0
34 -7 -10 -12 -41 0
35 43 37 -4 41 0
-44 24 21 43 -26 0
-11 -3 -48 -31 1 0
48 49 -34 27 -4 0
-22 24 -3 -33 11 0
24 -39 3 26 -20 0
-22 -23 1 -4 -43 0
-16 -31 -13 -40 30 0
-31 13 -26 -4 48 0
43 -25 15 -49 10 0
-22 28 50 44 20 0
-43 29 22 -40 31 0
-14 36 48 31 37 0
5 -15 23 -8 -48 0
-24 5 21 10 -3 0
41 -16 -4 31 -6 0
-50 17 41 -37 25 0
-24 -46 41 31 -18 0
17 -7 30 -21 -36 0
3 -7 51 0
-3 -7 -51 0
3 7 -51 0
-3 7 51 0
-8 -10 52 0
8 -10 -52 0
-8 10 -52 0
8 10 52 0
-11 15 53 0
11 15 -53 0
-11 -15 -53 0
11 -15 53 0
19 -20 54 0
-19 -20 -54 0
19 20 -54 0
-19 20 54 0
-22 -25 55 0
22 -25 -55 0
-22 25 -55 0
22 25 55 0
30 -36 56 0
-30 -36 -56 0
30 36 -56 0
-30 36 56 0
37 -38 57 0
-37 -38 -57 0
37 38 -57 0
-37 38 57 0
40 -48 58 0
-40 -48 -58 0
40 48 -58 0
-40 48 58 0
49 50 59 0
-49 50 -59 0
49 -50 -59 0
-49 -50 59 0
51 -52 60 0
-51 -52 -60 0
51 52 -60 0
-51 52 60 0
53 -54 61 0
-53 -54 -61 0
53 54 -61 0
-53 54 61 0
55 -56 62 0
-55 -56 -62 0
55 56 -62 0
-55 56 62 0
57 -58 63 0
-57 -58 -63 0
57 58 -63 0
-57 58 63 0
59 -60 64 0
-59 -60 -64 0
59 60 -64 0
-59 60 64 0
61 -62 65 0
-61 -62 -65 0
61 62 -65 0
-61 62 65 0
-63 -64 65 0
63 -64 -65 0
-63 64 -65 0
63 64 65 0
-1 3 66 0
1 3 -66 0
-1 -3 -66 0
1 -3 66 0
5 -9 67 0
-5 -9 -67 0
5 9 -67 0
-5 9 67 0
-13 -14 68 0
13 -14 -68 0
-13 14 -68 0
13 14 68 0
-16 -17 69 0
16 -17 -69 0
-16 17 -69 0
16 17 69 0
18 -19 70 0
-18 -19 -70 0
18 19 -70 0
-18 19 70 0
-21 -24 71 0
21 -24 -71 0
-21 24 -71 0
21 24 71 0
-26 -27 72 0
26 -27 -72 0
-26 27 -72 0
26 27 72 0
29 -30 73 0
-29 -30 -73 0
29 30 -73 0
-29 30 73 0
-33 -34 74 0
33 -34 -74 0
-33 34 -74 0
33 34 74 0
-35 -39 75 0
35 -39 -75 0
-35 39 -75 0
35 39 75 0
-41 43 76 0
41 43 -76 0
-41 -43 -76 0
41 -43 76 0
-48 -49 77 0
48 -49 -77 0
-48 49 -77 0
48 49 77 0
66 -67 78 0
-66 -67 -78 0
66 67 -78 0
-66 67 78 0
68 -69 79 0
-68 -69 -79 0
68 69 -79 0
-68 69 79 0
70 -71 80 0
-70 -71 -80 0
70 71 -80 0
-70 71 80 0
72 -73 81 0
-72 -73 -81 0
72 73 -81 0
-72 73 81 0
74 -75 82 0
-74 -75 -82 0
74 75 -82 0
-74 75 82 0
76 -77 83 0
-76 -77 -83 0
76 77 -83 0
-76 77 83 0
78 -79 84 0
-78 -79 -84 0
78 79 -84 0
-78 79 84 0
80 -81 85 0
-80 -81 -85 0
80 81 -85 0
-80 81 85 0
82 -83 86 0
-82 -83 -86 0
82 83 -86 0
-82 83 86 0
-84 -85 86 0
84 -85 -86 0
-84 85 -86 0
84 85 86 0
2 5 87 0
-2 5 -87 0
2 -5 -87 0
-2 -5 87 0
-9 -10 88 0
9 -10 -88 0
-9 10 -88 0
9 10 88 0
-12 13 89 0
12 13 -89 0
-12 -13 -89 0
12 -13 89 0
-14 -15 90 0
14 -15 -90 0
-14 15 -90 0
14 15 90 0
16 18 91 0
-16 18 -91 0
16 -18 -91 0
-16 -18 91 0
19 21 92 0
-19 21 -92 0
19 -21 -92 0
-19 -21 92 0
22 23 93 0
-22 23 -93 0
22 -23 -93 0
-22 -23 93 0
-24 26 94 0
24 26 -94 0
-24 -26 -94 0
24 -26 94 0
27 -28 95 0
-27 -28 -95 0
27 28 -95 0
-27 28 95 0
29 32 96 0
-29 32 -96 0
29 -32 -96 0
-29 -32 96 0
-35 -37 97 0
35 -37 -97 0
-35 37 -97 0
35 37 97 0
38 40 98 0
-38 40 -98 0
38 -40 -98 0
-38 -40 98 0
-41 -42 99 0
41 -42 -99 0
-41 42 -99 0
41 42 99 0
-43 -49 100 0
43 -49 -100 0
-43 49 -100 0
43 49 100 0
86 -87 101 0
-86 -87 -101 0
86 87 -101 0
-86 87 101 0
88 -89 102 0
-88 -89 -102 0
88 89 -102 0
-88 89 102 0
90 -91 103 0
-90 -91 -103 0
90 91 -103 0
-90 91 103 0
92 -93 104 0
-92 -93 -104 0
92 93 -104 0
-92 93 104 0
94 -95 105 0
-94 -95 -105 0
94 95 -105 0
-94 95 105 0
96 -97 106 0
-96 -97 -106 0
96 97 -106 0
-96 97 106 0
98 -99 107 0
-98 -99 -107 0
98 99 -107 0
-98 99 107 0
100 -101 108 0
-100 -101 -108 0
100 101 -108 0
-100 101 108 0
102 -103 109 0
-102 -103 -109 0
102 103 -109 0
-102 103 109 0
104 -105 110 0
-104 -105 -110 0
104 105 -110 0
-104 105 110 0
106 -107 111 0
-106 -107 -111 0
106 107 -111 0
-106 107 111 0
108 -109 112 0
-108 -109 -112 0
108 109 -112 0
-108 109 112 0
110 -111 113 0
-110 -111 -113 0
110 111 -113 0
-110 111 113 0
112 113 0
-112 -113 0
1 -3 114 0
-1 -3 -114 0
1 3 -114 0
-1 3 114 0
4 -5 115 0
-4 -5 -115 0
4 5 -115 0
-4 5 115 0
6 7 116 0
-6 7 -116 0
6 -7 -116 0
-6 -7 116 0
-10 -11 117 0
10 -11 -117 0
-10 11 -117 0
10 11 117 0
-12 -14 118 0
12 -14 -118 0
-12 14 -118 0
12 14 118 0
-15 -21 119 0
15 -21 -119 0
-15 21 -119 0
15 21 119 0
-24 27 120 0
24 27 -120 0
-24 -27 -120 0
24 -27 120 0
-28 30 121 0
28 30 -121 0
-28 -30 -121 0
28 -30 121 0
32 36 122 0
-32 36 -122 0
32 -36 -122 0
-32 -36 122 0
37 38 123 0
-37 38 -123 0
37 -38 -123 0
-37 -38 123 0
39 40 124 0
-39 40 -124 0
39 -40 -124 0
-39 -40 124 0
42 45 125 0
-42 45 -125 0
42 -45 -125 0
-42 -45 125 0
-46 47 126 0
46 47 -126 0
-46 -47 -126 0
46 -47 126 0
113 -114 127 0
-113 -114 -127 0
113 114 -127 0
-113 114 127 0
115 -116 128 0
-115 -116 -128 0
115 116 -128 0
-115 116 128 0
117 -118 129 0
-117 -118 -129 0
117 118 -129 0
-117 118 129 0
119 -120 130 0
-119 -120 -130 0
119 120 -130 0
-119 120 130 0
121 -122 131 0
-121 -122 -131 0
121 122 -131 0
-121 122 131 0
123 -124 132 0
-123 -124 -132 0
123 124 -132 0
-123 124 132 0
125 -126 133 0
-125 -126 -133 0
125 126 -133 0
-125 126 133 0
127 -128 134 0
-127 -128 -134 0
127 128 -134 0
-127 128 134 0
129 -130 135 0
-129 -130 -135 0
129 130 -135 0
-129 130 135 0
131 -132 136 0
-131 -132 -136 0
131 132 -136 0
-131 132 136 0
133 -134 137 0
-133 -134 -137 0
133 134 -137 0
-133 134 137 0
135 -136 138 0
-135 -136 -138 0
135 136 -138 0
-135 136 138 0
137 138 0
-137 -138 0
-2 -3 139 0
2 -3 -139 0
-2 3 -139 0
2 3 139 0
4 5 140 0
-4 5 -140 0
4 -5 -140 0
-4 -5 140 0
-8 12 141 0
8 12 -141 0
-8 -12 -141 0
8 -12 141 0
13 14 142 0
-13 14 -142 0
13 -14 -142 0
-13 -14 142 0
15 -16 143 0
-15 -16 -143 0
15 16 -143 0
-15 16 143 0
18 -19 144 0
-18 -19 -144 0
18 19 -144 0
-18 19 144 0
23 24 145 0
-23 24 -145 0
23 -24 -145 0
-23 -24 145 0
-27 28 146 0
27 28 -146 0
-27 -28 -146 0
27 -28 146 0
-32 33 147 0
32 33 -147 0
-32 -33 -147 0
32 -33 147 0
-36 39 148 0
36 39 -148 0
-36 -39 -148 0
36 -39 148 0
40 -42 149 0
-40 -42 -149 0
40 42 -149 0
-40 42 149 0
-43 45 150 0
43 45 -150 0
-43 -45 -150 0
43 -45 150 0
46 47 151 0
-46 47 -151 0
46 -47 -151 0
-46 -47 151 0
48 -50 152 0
-48 -50 -152 0
48 50 -152 0
-48 50 152 0
139 -140 153 0
-139 -140 -153 0
139 140 -153 0
-139 140 153 0
141 -142 154 0
-141 -142 -154 0
141 142 -154 0
-141 142 154 0
143 -144 155 0
-143 -144 -155 0
143 144 -155 0
-143 144 155 0
145 -146 156 0
-145 -146 -156 0
145 146 -156 0
-145 146 156 0
147 -148 157 0
-147 -148 -157 0
147 148 -157 0
-147 148 157 0
149 -150 158 0
-149 -150 -158 0
149 150 -158 0
-149 150 158 0
151 -152 159 0
-151 -152 -159 0
151 152 -159 0
-151 152 159 0
153 -154 160 0
-153 -154 -160 0
153 154 -160 0
-153 154 160 0
155 -156 161 0
-155 -156 -161 0
155 156 -161 0
-155 156 161 0
157 -158 162 0
-157 -158 -162 0
157 158 -162 0
-157 158 162 0
159 -160 163 0
-159 -160 -163 0
159 160 -163 0
-159 160 163 0
161 -162 164 0
-161 -162 -164 0
161 162 -164 0
-161 162 164 0
163 164 0
-163 -164 0
2 7 165 0
-2 7 -165 0
2 -7 -165 0
-2 -7 165 0
9 -10 166 0
-9 -10 -166 0
9 10 -166 0
-9 10 166 0
11 12 167 0
-11 12 -167 0
11 -12 -167 0
-11 -12 167 0
-13 -15 168 0
13 -15 -168 0
-13 15 -168 0
13 15 168 0
-16 -17 169 0
16 -17 -169 0
-16 17 -169 0
16 17 169 0
-18 -20 170 0
18 -20 -170 0
-18 20 -170 0
18 20 170 0
-21 -22 171 0
21 -22 -171 0
-21 22 -171 0
21 22 171 0
-25 -26 172 0
25 -26 -172 0
-25 26 -172 0
25 26 172 0
27 -28 173 0
-27 -28 -173 0
27 28 -173 0
-27 28 173 0
32 33 174 0
-32 33 -174 0
32 -33 -174 0
-32 -33 174 0
34 -35 175 0
-34 -35 -175 0
34 35 -175 0
-34 35 175 0
-37 -39 176 0
37 -39 -176 0
-37 39 -176 0
37 39 176 0
-40 -44 177 0
40 -44 -177 0
-40 44 -177 0
40 44 177 0
45 -47 178 0
-45 -47 -178 0
45 47 -178 0
-45 47 178 0
48 50 179 0
-48 50 -179 0
48 -50 -179 0
-48 -50 179 0
165 -166 180 0
-165 -166 -180 0
165 166 -180 0
-165 166 180 0
167 -168 181 0
-167 -168 -181 0
167 168 -181 0
-167 168 181 0
169 -170 182 0
-169 -170 -182 0
169 170 -182 0
-169 170 182 0
171 -172 183 0
-171 -172 -183 0
171 172 -183 0
-171 172 183 0
173 -174 184 0
-173 -174 -184 0
173 174 -184 0
-173 174 184 0
175 -176 185 0
-175 -176 -185 0
175 176 -185 0
-175 176 185 0
177 -178 186 0
-177 -178 -186 0
177 178 -186 0
-177 178 186 0
179 -180 187 0
-179 -180 -187 0
179 180 -187 0
-179 180 187 0
181 -182 188 0
-181 -182 -188 0
181 182 -188 0
-181 182 188 0
183 -184 189 0
-183 -184 -189 0
183 184 -189 0
-183 184 189 0
185 -186 190 0
-185 -186 -190 0
185 186 -190 0
-185 186 190 0
187 -188 191 0
-187 -188 -191 0
187 188 -191 0
-187 188 191 0
189 -190 192 0
-189 -190 -192 0
189 190 -192 0
-189 190 192 0
191 192 0
-191 -192 0
-1 2 193 0
1 2 -193 0
-1 -2 -193 0
1 -2 193 0
4 5 194 0
-4 5 -194 0
4 -5 -194 0
-4 -5 194 0
6 7 195 0
-6 7 -195 0
6 -7 -195 0
-6 -7 195 0
8 -9 196 0
-8 -9 -196 0
8 9 -196 0
-8 9 196 0
-11 13 197 0
11 13 -197 0
-11 -13 -197 0
11 -13 197 0
-14 15 198 0
14 15 -198 0
-14 -15 -198 0
14 -15 198 0
-16 19 199 0
16 19 -199 0
-16 -19 -199 0
16 -19 199 0
20 22 200 0
-20 22 -200 0
20 -22 -200 0
-20 -22 200 0
-23 25 201 0
23 25 -201 0
-23 -25 -201 0
23 -25 201 0
27 29 202 0
-27 29 -202 0
27 -29 -202 0
-27 -29 202 0
-32 34 203 0
32 34 -203 0
-32 -34 -203 0
32 -34 203 0
-37 39 204 0
37 39 -204 0
-37 -39 -204 0
37 -39 204 0
-40 43 205 0
40 43 -205 0
-40 -43 -205 0
40 -43 205 0
44 -45 206 0
-44 -45 -206 0
44 45 -206 0
-44 45 206 0
-46 -47 207 0
46 -47 -207 0
-46 47 -207 0
46 47 207 0
192 -193 208 0
-192 -193 -208 0
192 193 -208 0
-192 193 208 0
194 -195 209 0
-194 -195 -209 0
194 195 -209 0
-194 195 209 0
196 -197 210 0
-196 -197 -210 0
196 197 -210 0
-196 197 210 0
198 -199 211 0
-198 -199 -211 0
198 199 -211 0
-198 199 211 0
200 -201 212 0
-200 -201 -212 0
200 201 -212 0
-200 201 212 0
202 -203 213 0
-202 -203 -213 0
202 203 -213 0
-202 203 213 0
204 -205 214 0
-204 -205 -214 0
204 205 -214 0
-204 205 214 0
206 -207 215 0
-206 -207 -215 0
206 207 -215 0
-206 207 215 0
208 -209 216 0
-208 -209 -216 0
208 209 -216 0
-208 209 216 0
210 -211 217 0
-210 -211 -217 0
210 211 -217 0
-210 211 217 0
212 -213 218 0
-212 -213 -218 0
212 213 -218 0
-212 213 218 0
214 -215 219 0
-214 -215 -219 0
214 215 -219 0
-214 215 219 0
216 -217 220 0
-216 -217 -220 0
216 217 -220 0
-216 217 220 0
218 -219 221 0
-218 -219 -221 0
218 219 -221 0
-218 219 221 0
220 221 0
-220 -221 0
-3 -5 222 0
3 -5 -222 0
-3 5 -222 0
3 5 222 0
-7 -9 223 0
7 -9 -223 0
-7 9 -223 0
7 9 223 0
11 12 224 0
-11 12 -224 0
11 -12 -224 0
-11 -12 224 0
16 -18 225 0
-16 -18 -225 0
16 18 -225 0
-16 18 225 0
-19 -20 226 0
19 -20 -226 0
-19 20 -226 0
19 20 226 0
-21 -23 227 0
21 -23 -227 0
-21 23 -227 0
21 23 227 0
-24 28 228 0
24 28 -228 0
-24 -28 -228 0
24 -28 228 0
-31 -32 229 0
31 -32 -229 0
-31 32 -229 0
31 32 229 0
-35 -36 230 0
35 -36 -230 0
-35 36 -230 0
35 36 230 0
37 40 231 0
-37 40 -231 0
37 -40 -231 0
-37 -40 231 0
43 48 232 0
-43 48 -232 0
43 -48 -232 0
-43 -48 232 0
49 50 233 0
-49 50 -233 0
49 -50 -233 0
-49 -50 233 0
222 -223 234 0
-222 -223 -234 0
222 223 -234 0
-222 223 234 0
224 -225 235 0
-224 -225 -235 0
224 225 -235 0
-224 225 235 0
226 -227 236 0
-226 -227 -236 0
226 227 -236 0
-226 227 236 0
228 -229 237 0
-228 -229 -237 0
228 229 -237 0
-228 229 237 0
230 -231 238 0
-230 -231 -238 0
230 231 -238 0
-230 231 238 0
232 -233 239 0
-232 -233 -239 0
232 233 -239 0
-232 233 239 0
234 -235 240 0
-234 -235 -240 0
234 235 -240 0
-234 235 240 0
236 -237 241 0
-236 -237 -241 0
236 237 -241 0
-236 237 241 0
238 -239 242 0
-238 -239 -242 0
238 239 -242 0
-238 239 242 0
-240 -241 242 0
240 -241 -242 0
-240 241 -242 0
240 241 242 0
-1 -2 243 0
1 -2 -243 0
-1 2 -243 0
1 2 243 0
-4 5 244 0
4 5 -244 0
-4 -5 -244 0
4 -5 244 0
9 10 245 0
-9 10 -245 0
9 -10 -245 0
-9 -10 245 0
12 13 246 0
-12 13 -246 0
12 -13 -246 0
-12 -13 246 0
14 -16 247 0
-14 -16 -247 0
14 16 -247 0
-14 16 247 0
-17 19 248 0
17 19 -248 0
-17 -19 -248 0
17 -19 248 0
-21 -23 249 0
21 -23 -249 0
-21 23 -249 0
21 23 249 0
-26 27 250 0
26 27 -250 0
-26 -27 -250 0
26 -27 250 0
-28 -29 251 0
28 -29 -251 0
-28 29 -251 0
28 29 251 0
30 -31 252 0
-30 -31 -252 0
30 31 -252 0
-30 31 252 0
-32 -37 253 0
32 -37 -253 0
-32 37 -253 0
32 37 253 0
-40 44 254 0
40 44 -254 0
-40 -44 -254 0
40 -44 254 0
47 -48 255 0
-47 -48 -255 0
47 48 -255 0
-47 48 255 0
243 -244 256 0
-243 -244 -256 0
243 244 -256 0
-243 244 256 0
245 -246 257 0
-245 -246 -257 0
245 246 -257 0
-245 246 257 0
247 -248 258 0
-247 -248 -258 0
247 248 -258 0
-247 248 258 0
249 -250 259 0
-249 -250 -259 0
249 250 -259 0
-249 250 259 0
251 -252 260 0
-251 -252 -260 0
251 252 -260 0
-251 252 260 0
253 -254 261 0
-253 -254 -261 0
253 254 -261 0
-253 254 261 0
255 -256 262 0
-255 -256 -262 0
255 256 -262 0
-255 256 262 0
257 -258 263 0
-257 -258 -263 0
257 258 -263 0
-257 258 263 0
259 -260 264 0
-259 -260 -264 0
259 260 -264 0
-259 260 264 0
261 -262 265 0
-261 -262 -265 0
261 262 -265 0
-261 262 265 0
263 -264 266 0
-263 -264 -266 0
263 264 -266 0
-263 264 266 0
265 266 0
-265 -266 0
1 3 267 0
-1 3 -267 0
1 -3 -267 0
-1 -3 267 0
5 9 268 0
-5 9 -268 0
5 -9 -268 0
-5 -9 268 0
11 19 269 0
-11 19 -269 0
11 -19 -269 0
-11 -19 269 0
22 -23 270 0
-22 -23 -270 0
22 23 -270 0
-22 23 270 0
-24 -26 271 0
24 -26 -271 0
-24 26 -271 0
24 26 271 0
-29 31 272 0
29 31 -272 0
-29 -31 -272 0
29 -31 272 0
-34 -35 273 0
34 -35 -273 0
-34 35 -273 0
34 35 273 0
-43 44 274 0
43 44 -274 0
-43 -44 -274 0
43 -44 274 0
-45 47 275 0
45 47 -275 0
-45 -47 -275 0
45 -47 275 0
266 -267 276 0
-266 -267 -276 0
266 267 -276 0
-266 267 276 0
268 -269 277 0
-268 -269 -277 0
268 269 -277 0
-268 269 277 0
270 -271 278 0
-270 -271 -278 0
270 271 -278 0
-270 271 278 0
272 -273 279 0
-272 -273 -279 0
272 273 -279 0
-272 273 279 0
274 -275 280 0
-274 -275 -280 0
274 275 -280 0
-274 275 280 0
276 -277 281 0
-276 -277 -281 0
276 277 -281 0
-276 277 281 0
278 -279 282 0
-278 -279 -282 0
278 279 -282 0
-278 279 282 0
-280 -281 282 0
280 -281 -282 0
-280 281 -282 0
280 281 282 0
